29	56	18	98	14	37	13	39	71	92	23	92	20	72	61	34	46	2	4	66
4	29	62	19	19	12	82	64	70	93	81	67	32	79	27	83	82	79	30	98
47	26	73	72	87	86	89	79	29	74	21	39	91	96	99	89	86	17	74	41
2	3	100	28	14	35	71	22	84	70	24	83	96	13	70	60	76	67	22	49
86	87	22	26	13	16	100	54	74	45	31	68	39	83	29	56	21	86	63	32
